caseWidth=10;
caseHeight=10;
caseCapacity=100;
n=20;
price=[7 77 5 56 86 10 88 68 7 7 94 94 40 90 65 44 33 38 98 30];
weight=[17 9 13 8 4 19 6 13 2 17 3 15 17 19 3 3 12 3 12 7];
side=[3 1 2 4 3 1 3 2 1 1 2 1 1 4 4 3 1 4 2 3];
